8
1 4
2 8
3 9
4 5
5 7
6 9
7 7
8 4
38
0 1 13
1 0 13
0 2 68
2 0 68
0 3 9
3 0 9
0 4 12
4 0 12
0 5 4
5 0 4
0 6 14
6 0 14
0 7 84
7 0 84
0 8 62
8 0 62
1 2 93
1 3 88
1 4 85
1 6 77
1 8 65
2 3 86
2 4 80
2 5 37
2 6 77
2 8 61
3 4 34
3 6 83
3 7 17
3 8 12
4 5 27
4 6 69
4 7 49
5 7 27
5 8 29
6 7 23
6 8 32
7 8 14
